c This is the enc3 file generate by sty
p cnf 283 309
 1 2 3 0
 -1 -2 0
 -1 -3 0
 -2 -3 0
 4 5 6 0
 -4 -5 0
 -4 -6 0
 -5 -6 0
 7 8 9 0
 -7 -8 0
 -7 -9 0
 -8 -9 0
 10 11 12 0
 -10 -11 0
 -10 -12 0
 -11 -12 0
 13 14 15 0
 -13 -14 0
 -13 -15 0
 -14 -15 0
 16 17 18 0
 -16 -17 0
 -16 -18 0
 -17 -18 0
 19 20 21 0
 -19 -20 0
 -19 -21 0
 -20 -21 0
 22 23 24 0
 -22 -23 0
 -22 -24 0
 -23 -24 0
 25 26 27 0
 -25 -26 0
 -25 -27 0
 -26 -27 0
 28 29 30 0
 -28 -29 0
 -28 -30 0
 -29 -30 0
 31 32 33 0
 -31 -32 0
 -31 -33 0
 -32 -33 0
 -1 -12 -8 34 0
 -1 -11 -9 35 0
 -1 -12 -7 36 0
 -3 -10 -7 37 0
 -12 -9 38 0
 -1 -11 -8 39 0
 -1 -10 -9 40 0
 -2 -11 -9 41 0
 -1 -10 -8 42 0
 -3 -11 -7 43 0
 -2 -10 -7 44 0
 -2 -12 -7 45 0
 -3 -10 -8 46 0
 -3 -11 -8 47 0
 -3 -10 -9 48 0
 -3 -12 -8 49 0
 -1 -11 -7 50 0
 -2 -11 -7 51 0
 -2 -10 -8 52 0
 -2 -10 -9 53 0
 -2 -11 -8 54 0
 -2 -12 -8 55 0
 -3 -12 -7 56 0
 -1 -10 -7 57 0
 -3 -11 -9 58 0
 -3 -12 -9 59 0
 -4 -3 -7 60 0
 -6 -2 -9 61 0
 -6 -1 -7 62 0
 -6 -1 -8 63 0
 -6 -2 -7 64 0
 -6 -3 -9 65 0
 -6 -2 -8 66 0
 -6 -1 -9 67 0
 -6 -3 -8 68 0
 -5 -1 -9 69 0
 -5 -2 -9 70 0
 -5 -3 -7 71 0
 -4 -3 -9 72 0
 -4 -3 -8 73 0
 -5 -2 -8 74 0
 -5 -1 -7 75 0
 -4 -2 -7 76 0
 -5 -1 -8 77 0
 -4 -1 -8 78 0
 -5 -2 -7 79 0
 -4 -1 -7 80 0
 -5 -3 -8 81 0
 -4 -2 -8 82 0
 -5 -3 -9 83 0
 -6 -3 -7 84 0
 -4 -2 -9 85 0
 -4 -1 -9 86 0
 -7 -18 87 0
 -9 -17 88 0
 -9 -18 89 0
 -7 -17 90 0
 -9 -16 91 0
 -8 -16 92 0
 -7 -16 93 0
 -8 -17 94 0
 -8 -18 95 0
 -12 -8 -17 -19 96 0
 -12 -9 -16 -19 97 0
 -12 -8 -18 -19 98 0
 -12 -8 -16 -19 99 0
 -12 -9 -16 -20 100 0
 -11 -9 -16 -20 100 0
 -12 -7 -17 -19 101 0
 -12 -8 -18 -20 102 0
 -12 -7 -16 -19 103 0
 -12 -7 -17 -20 104 0
 -12 -9 -17 -19 105 0
 -11 -9 -16 -21 106 0
 -12 -9 -18 -19 107 0
 -11 -7 -16 -21 108 0
 -12 -7 -18 -19 109 0
 -12 -9 -17 -20 109 0
 -11 -9 -16 -19 110 0
 -12 -9 -17 -21 111 0
 -12 -8 -17 -20 112 0
 -10 -9 -18 -20 113 0
 -12 -9 -18 -20 113 0
 -12 -8 -16 -20 114 0
 -10 -7 -18 -20 115 0
 -12 -7 -18 -20 115 0
 -11 -9 -17 -19 116 0
 -12 -8 -16 -21 117 0
 -12 -7 -17 -21 118 0
 -12 -9 -16 -21 119 0
 -11 -8 -16 -21 120 0
 -10 -8 -18 -20 121 0
 -11 -7 -17 -21 122 0
 -11 -7 -16 -20 123 0
 -12 -8 -17 -21 124 0
 -11 -7 -18 -19 125 0
 -11 -9 -17 -20 125 0
 -11 -8 -18 -19 126 0
 -11 -8 -16 -19 127 0
 -11 -7 -16 -19 128 0
 -10 -7 -16 -21 129 0
 -10 -7 -17 -20 130 0
 -11 -9 -18 -19 131 0
 -10 -8 -17 -20 132 0
 -10 -8 -17 -21 133 0
 -11 -8 -17 -19 134 0
 -11 -7 -17 -19 135 0
 -10 -7 -18 -21 136 0
 -10 -8 -18 -21 136 0
 -11 -7 -18 -21 136 0
 -11 -8 -18 -21 136 0
 -10 -9 -18 -21 136 0
 -11 -9 -18 -21 136 0
 -12 -7 -18 -21 136 0
 -12 -8 -18 -21 136 0
 -12 -9 -18 -21 136 0
 -10 -8 -16 -20 137 0
 -10 -7 -16 -20 138 0
 -12 -7 -16 -20 139 0
 -9 -17 -21 140 0
 -11 -8 -17 -21 141 0
 -11 -8 -16 -20 142 0
 -10 -7 -17 -19 143 0
 -10 -8 -17 -19 144 0
 -11 -8 -17 -20 145 0
 -10 -9 -18 -19 146 0
 -11 -7 -17 -20 147 0
 -12 -7 -16 -21 148 0
 -10 -7 -16 -19 149 0
 -10 -8 -16 -19 150 0
 -10 -8 -18 -19 151 0
 -10 -7 -17 -21 152 0
 -10 -8 -16 154 0
 -11 -7 -153 154 0
 -10 -8 -16 -21 155 0
 -11 -8 -18 -20 156 0
 -10 -9 -16 -21 157 0
 -10 -9 -17 -19 158 0
 -11 -7 -18 -20 159 0
 -11 -9 -18 -20 160 0
 -10 -9 -16 -19 161 0
 -10 -9 -16 -20 162 0
 -15 -8 -17 163 0
 -15 -8 -16 164 0
 -15 -9 -16 165 0
 -15 -7 -17 166 0
 -15 -9 -17 167 0
 -15 -9 -18 168 0
 -14 -9 -16 169 0
 -13 -7 -18 170 0
 -15 -7 -18 170 0
 -15 -8 -18 171 0
 -13 -8 -18 172 0
 -14 -9 -17 173 0
 -13 -9 -18 174 0
 -14 -7 -16 175 0
 -13 -7 -16 176 0
 -14 -8 -17 177 0
 -14 -7 -17 178 0
 -14 -8 -16 179 0
 -15 -7 -16 180 0
 -13 -8 -16 181 0
 -13 -7 -17 182 0
 -13 -8 -17 183 0
 -14 -9 -18 184 0
 -13 -9 -17 185 0
 -14 -8 -18 186 0
 -14 -7 -18 187 0
 -13 -9 -16 188 0
 -18 189 0
 -16 190 0
 -17 191 0
 -21 -8 -18 192 0
 -21 -9 -18 193 0
 -21 -7 -18 194 0
 -21 -9 -16 195 0
 -21 -8 -17 196 0
 -19 -7 -16 197 0
 -21 -9 -17 198 0
 -20 -8 -18 199 0
 -20 -9 -16 200 0
 -20 -7 -18 201 0
 -20 -7 -16 202 0
 -20 -9 -18 203 0
 -20 -9 -17 204 0
 -21 -8 -16 205 0
 -21 -7 -17 206 0
 -20 -8 -16 207 0
 -20 -7 -17 208 0
 -19 -7 -17 209 0
 -20 -8 -17 210 0
 -19 -8 -16 211 0
 -19 -8 -17 212 0
 -19 -9 -17 213 0
 -21 -7 -16 214 0
 -19 -9 -18 215 0
 -19 -9 -16 216 0
 -19 -7 -18 217 0
 -19 -8 -18 218 0
 -24 -8 -17 219 0
 -24 -7 -17 220 0
 -24 -8 -16 221 0
 -24 -9 -18 222 0
 -24 -8 -18 223 0
 -24 -7 -18 224 0
 -23 -7 -16 225 0
 -23 -8 -16 226 0
 -23 -9 -16 227 0
 -24 -9 -16 228 0
 -23 -7 -18 229 0
 -23 -9 -17 230 0
 -23 -8 -17 231 0
 -23 -8 -18 232 0
 -23 -9 -18 233 0
 -22 -7 -16 234 0
 -23 -7 -17 235 0
 -22 -9 -17 236 0
 -24 -9 -17 237 0
 -24 -7 -16 238 0
 -22 -7 -17 239 0
 -22 -9 -18 240 0
 -22 -8 -18 241 0
 -22 -9 -16 242 0
 -22 -8 -17 243 0
 -22 -7 -18 244 0
 -22 -8 -16 245 0
 -25 -32 246 0
 -27 -33 247 0
 -26 -32 248 0
 -25 -31 249 0
 -27 -31 250 0
 -25 -33 251 0
 -26 -33 252 0
 -26 -31 253 0
 -27 -32 254 0
 -30 -26 -31 255 0
 -30 -25 -31 256 0
 -30 -26 -32 257 0
 -30 -25 -32 258 0
 -29 -25 -32 258 0
 -29 -25 -31 259 0
 -30 -27 -31 260 0
 -29 -26 -31 261 0
 -30 -27 -32 262 0
 -28 -27 -33 263 0
 -29 -26 -32 264 0
 -29 -27 -33 265 0
 -28 -26 -33 266 0
 -29 -27 -31 267 0
 -28 -25 -33 268 0
 -30 -25 -33 269 0
 -29 -26 -33 270 0
 -29 -27 -32 271 0
 -29 -25 -33 272 0
 -28 -27 -32 273 0
 -30 -26 -33 274 0
 -28 -27 -31 275 0
 -30 -27 -33 276 0
 -28 -26 -32 277 0
 -28 -26 -31 278 0
 -28 -25 -31 279 0
 -28 -25 -32 280 0
 -32 281 0
 -33 282 0
 -31 283 0
